NAME: cuum720.tsp
TYPE: TSP
COMMENT: User-generated TSP file
DIMENSION: 720
EDGE_WEIGHT_TYPE: EUC_2D
NODE_COORD_SECTION
1 583.0 136.0
2 300.0 272.0
3 391.0 680.0
4 505.0 412.0
5 58.0 385.0
6 298.0 226.0
7 178.0 329.0
8 594.0 73.0
9 688.0 491.0
10 93.0 565.0
11 452.0 11.0
12 516.0 67.0
13 132.0 301.0
14 342.0 288.0
15 217.0 490.0
16 302.0 268.0
17 188.0 185.0
18 169.0 334.0
19 195.0 271.0
20 664.0 67.0
21 326.0 423.0
22 211.0 142.0
23 532.0 317.0
24 706.0 500.0
25 547.0 264.0
26 172.0 40.0
27 174.0 292.0
28 284.0 445.0
29 257.0 502.0
30 81.0 478.0
31 599.0 658.0
32 367.0 634.0
33 456.0 243.0
34 155.0 696.0
35 162.0 156.0
36 608.0 718.0
37 101.0 26.0
38 200.0 602.0
39 423.0 249.0
40 162.0 50.0
41 202.0 143.0
42 244.0 139.0
43 36.0 679.0
44 661.0 224.0
45 712.0 366.0
46 83.0 572.0
47 97.0 392.0
48 440.0 693.0
49 80.0 391.0
50 44.0 435.0
51 695.0 189.0
52 717.0 394.0
53 309.0 682.0
54 258.0 592.0
55 472.0 417.0
56 153.0 354.0
57 271.0 63.0
58 101.0 156.0
59 640.0 713.0
60 508.0 357.0
61 397.0 576.0
62 240.0 79.0
63 147.0 422.0
64 619.0 344.0
65 607.0 453.0
66 275.0 167.0
67 683.0 419.0
68 199.0 75.0
69 73.0 350.0
70 688.0 495.0
71 243.0 474.0
72 546.0 589.0
73 250.0 430.0
74 50.0 641.0
75 664.0 472.0
76 170.0 584.0
77 594.0 677.0
78 143.0 601.0
79 608.0 631.0
80 159.0 268.0
81 72.0 549.0
82 552.0 470.0
83 459.0 298.0
84 610.0 232.0
85 168.0 517.0
86 360.0 522.0
87 676.0 300.0
88 266.0 589.0
89 253.0 239.0
90 586.0 488.0
91 178.0 349.0
92 659.0 417.0
93 249.0 282.0
94 381.0 501.0
95 11.0 235.0
96 537.0 54.0
97 98.0 680.0
98 680.0 555.0
99 663.0 135.0
100 478.0 14.0
101 377.0 16.0
102 224.0 125.0
103 243.0 349.0
104 561.0 518.0
105 661.0 583.0
106 558.0 406.0
107 621.0 124.0
108 144.0 643.0
109 60.0 416.0
110 556.0 585.0
111 11.0 240.0
112 421.0 477.0
113 209.0 568.0
114 594.0 115.0
115 77.0 331.0
116 425.0 126.0
117 7.0 515.0
118 144.0 350.0
119 401.0 295.0
120 459.0 67.0
121 538.0 10.0
122 616.0 496.0
123 341.0 309.0
124 422.0 466.0
125 386.0 313.0
126 304.0 266.0
127 88.0 665.0
128 586.0 206.0
129 322.0 452.0
130 667.0 555.0
131 178.0 632.0
132 668.0 101.0
133 171.0 232.0
134 194.0 695.0
135 284.0 423.0
136 687.0 415.0
137 424.0 464.0
138 637.0 377.0
139 20.0 324.0
140 666.0 14.0
141 578.0 208.0
142 239.0 464.0
143 156.0 532.0
144 381.0 509.0
145 311.0 19.0
146 603.0 67.0
147 69.0 560.0
148 493.0 670.0
149 335.0 366.0
150 406.0 59.0
151 158.0 496.0
152 708.0 349.0
153 349.0 573.0
154 303.0 546.0
155 106.0 354.0
156 78.0 72.0
157 420.0 118.0
158 620.0 678.0
159 603.0 717.0
160 6.0 291.0
161 409.0 206.0
162 52.0 5.0
163 111.0 470.0
164 235.0 636.0
165 511.0 160.0
166 373.0 349.0
167 476.0 64.0
168 158.0 400.0
169 458.0 326.0
170 348.0 183.0
171 100.0 142.0
172 69.0 159.0
173 552.0 462.0
174 386.0 676.0
175 27.0 77.0
176 663.0 412.0
177 379.0 58.0
178 716.0 665.0
179 606.0 252.0
180 8.0 669.0
181 660.0 520.0
182 59.0 15.0
183 591.0 656.0
184 362.0 469.0
185 586.0 541.0
186 61.0 713.0
187 257.0 262.0
188 172.0 340.0
189 664.0 223.0
190 500.0 328.0
191 615.0 476.0
192 368.0 480.0
193 273.0 158.0
194 317.0 336.0
195 273.0 178.0
196 504.0 402.0
197 196.0 617.0
198 422.0 597.0
199 548.0 56.0
200 194.0 399.0
201 357.0 527.0
202 565.0 198.0
203 515.0 181.0
204 534.0 410.0
205 622.0 437.0
206 421.0 181.0
207 687.0 80.0
208 644.0 227.0
209 52.0 394.0
210 398.0 289.0
211 607.0 484.0
212 654.0 161.0
213 251.0 321.0
214 608.0 188.0
215 518.0 114.0
216 563.0 184.0
217 451.0 633.0
218 404.0 295.0
219 252.0 70.0
220 68.0 566.0
221 320.0 197.0
222 485.0 99.0
223 47.0 173.0
224 439.0 683.0
225 428.0 494.0
226 365.0 588.0
227 77.0 34.0
228 248.0 695.0
229 183.0 420.0
230 587.0 553.0
231 114.0 584.0
232 297.0 699.0
233 296.0 641.0
234 322.0 85.0
235 268.0 127.0
236 36.0 532.0
237 24.0 652.0
238 563.0 431.0
239 711.0 24.0
240 25.0 145.0
241 213.0 675.0
242 110.0 643.0
243 376.0 359.0
244 83.0 343.0
245 613.0 379.0
246 575.0 450.0
247 625.0 698.0
248 263.0 510.0
249 714.0 87.0
250 119.0 461.0
251 325.0 612.0
252 71.0 136.0
253 160.0 596.0
254 634.0 131.0
255 105.0 130.0
256 445.0 591.0
257 252.0 378.0
258 447.0 518.0
259 468.0 70.0
260 543.0 663.0
261 111.0 507.0
262 326.0 570.0
263 226.0 199.0
264 657.0 453.0
265 683.0 188.0
266 390.0 697.0
267 55.0 392.0
268 432.0 548.0
269 614.0 288.0
270 423.0 100.0
271 393.0 442.0
272 24.0 636.0
273 170.0 223.0
274 358.0 484.0
275 2.0 262.0
276 87.0 289.0
277 44.0 439.0
278 585.0 525.0
279 628.0 500.0
280 680.0 281.0
281 120.0 67.0
282 479.0 175.0
283 316.0 50.0
284 158.0 282.0
285 487.0 265.0
286 440.0 544.0
287 438.0 627.0
288 637.0 63.0
289 157.0 524.0
290 197.0 677.0
291 14.0 666.0
292 133.0 427.0
293 518.0 256.0
294 365.0 54.0
295 622.0 526.0
296 602.0 645.0
297 558.0 627.0
298 429.0 392.0
299 225.0 38.0
300 166.0 119.0
301 500.0 584.0
302 299.0 37.0
303 145.0 385.0
304 586.0 379.0
305 392.0 675.0
306 272.0 79.0
307 531.0 569.0
308 428.0 472.0
309 504.0 577.0
310 269.0 138.0
311 347.0 222.0
312 106.0 317.0
313 493.0 404.0
314 577.0 85.0
315 345.0 312.0
316 458.0 47.0
317 63.0 487.0
318 586.0 353.0
319 78.0 71.0
320 598.0 627.0
321 627.0 636.0
322 156.0 336.0
323 358.0 582.0
324 48.0 398.0
325 580.0 381.0
326 254.0 657.0
327 43.0 111.0
328 418.0 463.0
329 218.0 583.0
330 186.0 394.0
331 13.0 92.0
332 712.0 473.0
333 655.0 699.0
334 225.0 527.0
335 285.0 17.0
336 650.0 618.0
337 144.0 10.0
338 251.0 46.0
339 348.0 234.0
340 144.0 307.0
341 113.0 677.0
342 456.0 660.0
343 419.0 670.0
344 75.0 56.0
345 539.0 149.0
346 213.0 580.0
347 337.0 647.0
348 331.0 146.0
349 130.0 310.0
350 190.0 178.0
351 183.0 444.0
352 670.0 642.0
353 174.0 609.0
354 368.0 120.0
355 15.0 289.0
356 54.0 636.0
357 125.0 64.0
358 361.0 380.0
359 56.0 248.0
360 513.0 201.0
361 220.0 65.0
362 543.0 262.0
363 584.0 152.0
364 494.0 403.0
365 612.0 661.0
366 662.0 663.0
367 82.0 224.0
368 131.0 297.0
369 609.0 668.0
370 230.0 638.0
371 120.0 285.0
372 286.0 159.0
373 151.0 230.0
374 167.0 461.0
375 302.0 375.0
376 651.0 648.0
377 287.0 117.0
378 37.0 70.0
379 317.0 24.0
380 340.0 160.0
381 282.0 583.0
382 79.0 485.0
383 262.0 132.0
384 545.0 163.0
385 624.0 128.0
386 415.0 681.0
387 590.0 680.0
388 509.0 349.0
389 375.0 343.0
390 236.0 548.0
391 365.0 389.0
392 689.0 317.0
393 104.0 308.0
394 491.0 7.0
395 30.0 380.0
396 507.0 29.0
397 452.0 581.0
398 340.0 192.0
399 190.0 528.0
400 595.0 374.0
401 144.0 308.0
402 70.0 572.0
403 671.0 96.0
404 219.0 178.0
405 27.0 555.0
406 212.0 714.0
407 224.0 574.0
408 504.0 73.0
409 666.0 481.0
410 676.0 164.0
411 8.0 625.0
412 594.0 328.0
413 571.0 98.0
414 581.0 133.0
415 263.0 399.0
416 332.0 439.0
417 410.0 206.0
418 609.0 13.0
419 560.0 383.0
420 62.0 254.0
421 598.0 283.0
422 173.0 338.0
423 45.0 155.0
424 210.0 427.0
425 51.0 99.0
426 479.0 615.0
427 45.0 90.0
428 129.0 200.0
429 12.0 371.0
430 204.0 204.0
431 56.0 44.0
432 138.0 174.0
433 578.0 152.0
434 518.0 154.0
435 229.0 692.0
436 383.0 595.0
437 600.0 232.0
438 130.0 321.0
439 523.0 703.0
440 618.0 279.0
441 152.0 248.0
442 448.0 686.0
443 522.0 258.0
444 476.0 282.0
445 275.0 401.0
446 489.0 567.0
447 108.0 155.0
448 295.0 410.0
449 662.0 668.0
450 536.0 683.0
451 31.0 562.0
452 588.0 666.0
453 42.0 373.0
454 382.0 682.0
455 235.0 588.0
456 569.0 715.0
457 129.0 223.0
458 133.0 682.0
459 118.0 560.0
460 305.0 205.0
461 149.0 61.0
462 10.0 542.0
463 416.0 710.0
464 42.0 126.0
465 166.0 411.0
466 590.0 693.0
467 477.0 246.0
468 484.0 60.0
469 309.0 715.0
470 307.0 76.0
471 199.0 196.0
472 349.0 288.0
473 123.0 616.0
474 518.0 151.0
475 205.0 672.0
476 112.0 504.0
477 117.0 346.0
478 176.0 75.0
479 428.0 647.0
480 248.0 481.0
481 544.0 87.0
482 177.0 687.0
483 653.0 502.0
484 327.0 288.0
485 652.0 101.0
486 350.0 270.0
487 227.0 237.0
488 684.0 251.0
489 2.0 533.0
490 113.0 472.0
491 320.0 557.0
492 542.0 567.0
493 266.0 602.0
494 558.0 557.0
495 159.0 344.0
496 265.0 468.0
497 609.0 1.0
498 266.0 272.0
499 507.0 345.0
500 56.0 461.0
501 708.0 30.0
502 345.0 51.0
503 320.0 603.0
504 703.0 224.0
505 288.0 463.0
506 581.0 634.0
507 690.0 680.0
508 586.0 9.0
509 491.0 113.0
510 437.0 295.0
511 282.0 37.0
512 452.0 78.0
513 333.0 53.0
514 598.0 594.0
515 709.0 58.0
516 334.0 240.0
517 141.0 627.0
518 597.0 235.0
519 119.0 15.0
520 24.0 163.0
521 295.0 691.0
522 169.0 408.0
523 296.0 103.0
524 493.0 271.0
525 359.0 338.0
526 163.0 311.0
527 355.0 383.0
528 52.0 693.0
529 14.0 314.0
530 84.0 195.0
531 646.0 514.0
532 373.0 437.0
533 216.0 109.0
534 170.0 684.0
535 92.0 4.0
536 674.0 77.0
537 414.0 80.0
538 573.0 304.0
539 397.0 210.0
540 507.0 391.0
541 186.0 100.0
542 48.0 530.0
543 617.0 63.0
544 693.0 427.0
545 498.0 230.0
546 547.0 446.0
547 430.0 126.0
548 521.0 422.0
549 7.0 112.0
550 157.0 347.0
551 622.0 698.0
552 696.0 584.0
553 573.0 642.0
554 704.0 374.0
555 567.0 684.0
556 6.0 3.0
557 513.0 271.0
558 652.0 26.0
559 444.0 478.0
560 320.0 247.0
561 334.0 188.0
562 436.0 468.0
563 317.0 188.0
564 128.0 232.0
565 488.0 199.0
566 62.0 9.0
567 191.0 675.0
568 677.0 387.0
569 715.0 384.0
570 63.0 576.0
571 363.0 577.0
572 575.0 288.0
573 453.0 364.0
574 507.0 131.0
575 448.0 41.0
576 408.0 18.0
577 375.0 323.0
578 124.0 435.0
579 396.0 466.0
580 549.0 616.0
581 529.0 414.0
582 18.0 416.0
583 448.0 505.0
584 633.0 301.0
585 225.0 235.0
586 12.0 48.0
587 658.0 675.0
588 704.0 151.0
589 461.0 136.0
590 131.0 218.0
591 18.0 544.0
592 668.0 99.0
593 53.0 237.0
594 379.0 652.0
595 672.0 535.0
596 503.0 64.0
597 392.0 283.0
598 298.0 521.0
599 283.0 47.0
600 459.0 673.0
601 595.0 114.0
602 696.0 565.0
603 431.0 209.0
604 9.0 286.0
605 299.0 372.0
606 556.0 439.0
607 547.0 711.0
608 417.0 425.0
609 404.0 226.0
610 632.0 303.0
611 663.0 438.0
612 247.0 505.0
613 180.0 619.0
614 467.0 603.0
615 86.0 187.0
616 347.0 385.0
617 57.0 551.0
618 449.0 501.0
619 561.0 65.0
620 493.0 285.0
621 621.0 71.0
622 569.0 262.0
623 108.0 147.0
624 241.0 46.0
625 640.0 492.0
626 205.0 309.0
627 135.0 59.0
628 432.0 5.0
629 545.0 412.0
630 562.0 12.0
631 299.0 524.0
632 340.0 240.0
633 484.0 213.0
634 657.0 545.0
635 618.0 291.0
636 551.0 556.0
637 98.0 458.0
638 359.0 610.0
639 187.0 82.0
640 18.0 450.0
641 273.0 362.0
642 631.0 559.0
643 708.0 365.0
644 142.0 664.0
645 116.0 180.0
646 581.0 495.0
647 66.0 263.0
648 676.0 656.0
649 82.0 672.0
650 627.0 120.0
651 247.0 166.0
652 359.0 15.0
653 599.0 416.0
654 433.0 376.0
655 264.0 460.0
656 599.0 145.0
657 528.0 418.0
658 237.0 503.0
659 453.0 386.0
660 334.0 561.0
661 160.0 596.0
662 93.0 653.0
663 603.0 40.0
664 442.0 23.0
665 581.0 294.0
666 103.0 40.0
667 541.0 384.0
668 53.0 619.0
669 170.0 229.0
670 478.0 533.0
671 83.0 636.0
672 577.0 371.0
673 387.0 304.0
674 260.0 34.0
675 559.0 407.0
676 311.0 635.0
677 158.0 351.0
678 161.0 224.0
679 448.0 225.0
680 507.0 113.0
681 533.0 706.0
682 156.0 151.0
683 192.0 74.0
684 593.0 95.0
685 248.0 486.0
686 133.0 169.0
687 249.0 457.0
688 76.0 190.0
689 284.0 438.0
690 470.0 41.0
691 203.0 197.0
692 431.0 388.0
693 424.0 291.0
694 349.0 287.0
695 49.0 379.0
696 242.0 662.0
697 208.0 555.0
698 277.0 707.0
699 447.0 351.0
700 553.0 543.0
701 678.0 626.0
702 520.0 719.0
703 600.0 67.0
704 13.0 404.0
705 685.0 505.0
706 610.0 254.0
707 614.0 399.0
708 695.0 220.0
709 345.0 65.0
710 696.0 275.0
711 660.0 496.0
712 63.0 78.0
713 675.0 377.0
714 504.0 334.0
715 167.0 599.0
716 537.0 444.0
717 60.0 264.0
718 92.0 440.0
719 631.0 530.0
720 202.0 647.0
EOF





